solution status: optimal solution found
objective value:                     142263.330739365
d11(0,0)                                            1 	(obj:0)
d11(2,3)                                            1 	(obj:0)
d11(2,4)                                            1 	(obj:0)
d11(2,5)                                            1 	(obj:0)
d11(3,7)                                            1 	(obj:0)
d11(3,8)                                            1 	(obj:0)
d11(3,9)                                            1 	(obj:0)
d11(3,11)                                           1 	(obj:0)
d11(3,12)                                           1 	(obj:0)
d11(3,13)                                           1 	(obj:0)
d11(3,14)                                           1 	(obj:0)
d11(4,15)                                           1 	(obj:0)
d11(4,16)                                           1 	(obj:0)
d11(4,17)                                           1 	(obj:0)
d11(4,18)                                           1 	(obj:0)
d11(4,19)                                           1 	(obj:0)
d11(4,20)                                           1 	(obj:0)
d11(4,21)                                           1 	(obj:0)
d11(4,22)                                           1 	(obj:0)
d11(4,23)                                           1 	(obj:0)
d11(4,24)                                           1 	(obj:0)
d11(4,25)                                           1 	(obj:0)
d11(4,26)                                           1 	(obj:0)
d11(4,27)                                           1 	(obj:0)
d11(4,28)                                           1 	(obj:0)
d11(4,29)                                           1 	(obj:0)
d12(1,1)                                            1 	(obj:0)
d12(1,2)                                            1 	(obj:0)
d21(3,7)                                            1 	(obj:0)
d21(4,15)                                           1 	(obj:0)
d21(4,16)                                           1 	(obj:0)
d21(4,17)                                           1 	(obj:0)
d21(4,19)                                           1 	(obj:0)
d21(4,23)                                           1 	(obj:0)
d21(4,24)                                           1 	(obj:0)
d21(4,25)                                           1 	(obj:0)
d21(4,27)                                           1 	(obj:0)
STE(1,1)                             9596.25019888882 	(obj:0)
STE(0,0)                                         9450 	(obj:0)
STE(1,2)                             11014.0538624388 	(obj:0)
STE(2,3)                             7182.00029999997 	(obj:0)
STE(2,4)                             8840.25019888882 	(obj:0)
STE(2,5)                             8599.80396354991 	(obj:0)
STE(2,6)                             10258.0538624388 	(obj:0)
STE(3,7)                             4767.75040111113 	(obj:0)
STE(3,8)                             6426.00029999997 	(obj:0)
STE(3,9)                             6426.00029999997 	(obj:0)
STE(3,10)                            8084.25019888882 	(obj:0)
STE(3,11)                            6185.55406466107 	(obj:0)
STE(3,12)                            7843.80396354985 	(obj:0)
STE(3,13)                            7843.80396354991 	(obj:0)
STE(3,14)                            9502.05386243873 	(obj:0)
STE(4,15)                            2353.50050222231 	(obj:0)
STE(4,16)                            4011.75040111113 	(obj:0)
STE(4,17)                            4011.75040111115 	(obj:0)
STE(4,18)                            5670.00029999997 	(obj:0)
STE(4,19)                            4011.75040111115 	(obj:0)
STE(4,20)                            5670.00029999997 	(obj:0)
STE(4,21)                                   5670.0003 	(obj:0)
STE(4,22)                            7328.25019888882 	(obj:0)
STE(4,23)                            3771.30416577225 	(obj:0)
STE(4,24)                            5429.55406466107 	(obj:0)
STE(4,25)                            5429.55406466103 	(obj:0)
STE(4,26)                            7087.80396354985 	(obj:0)
STE(4,27)                            5429.55406466109 	(obj:0)
STE(4,28)                            7087.80396354991 	(obj:0)
STE(4,29)                            7087.80396354991 	(obj:0)
STE(4,30)                            8746.05386243873 	(obj:0)
y1(3,11)                             1492.42490899996 	(obj:0)
y1(3,13)                             1492.42490899996 	(obj:0)
y1(4,15)                             1492.42490899994 	(obj:0)
y1(4,17)                             1492.42490899994 	(obj:0)
y1(4,19)                             1492.42490899994 	(obj:0)
y1(4,21)                             1492.42490899994 	(obj:0)
y1(4,23)                             1492.42490899994 	(obj:0)
y1(4,25)                             1492.42490899994 	(obj:0)
y1(4,27)                             1492.42490899994 	(obj:0)
y1(4,29)                             1492.42490899994 	(obj:0)
WB(1)                                3265.91696791192 	(obj:0)
AVE(1)                               3265.91696791192 	(obj:0)
AVE(2)                               3332.74178563731 	(obj:0)
AVE(3)                               3444.11697932125 	(obj:0)
AVE(4)                               3399.56511093778 	(obj:0)
WG(2)                                3332.74178563731 	(obj:10)
WG(3)                                3444.11697932125 	(obj:10)
WG(4)                                3399.56511093781 	(obj:10)
BG(1)                                1637.45557699816 	(obj:10)
BG(2)                                863.550713342281 	(obj:10)
BG(3)                                752.175519658342 	(obj:10)
BG(4)                                796.727388041754 	(obj:10)
y1(2,3)                              1492.42490899996 	(obj:0)
y1(2,5)                              1492.42490899996 	(obj:0)
y1(3,7)                              1492.42490899996 	(obj:0)
y1(3,9)                              1492.42490899996 	(obj:0)
y2(1,1)                              949.737051461913 	(obj:0)
y2(1,2)                              2442.16196046185 	(obj:0)
